INCAR created by Atomic Simulation Environment
 ENCUT = 400.000000
 SIGMA = 0.100000
 EDIFF = 1.00e-04
 EDIFFG = -5.00e-02
 ALGO = Fast
 GGA = PE
 IBRION = 2
 ISIF = 2
 ISMEAR = 0
 ISPIN = 1
 NELM = 200
 NPAR = 8
 NSW = 100
 LCHARG = .FALSE.
 LWAVE = .FALSE.
